n_res = 4;
rc = [ 29, 31, 37, 21 ];
n_tasks = 30;
d = [ 9, 7, 8, 5, 6, 9, 8, 1, 3, 10, 7, 9, 10, 6, 7, 4, 6, 10, 5, 8, 3, 10, 7, 3, 4, 7, 2, 10, 9, 6 ];
rr = [| 29, 29, 29, 29, 29, 29, 29, 29, 29, 29, 29, 29, 29, 29, 29, 29, 29, 29, 29, 29, 29, 29, 29, 29, 29, 29, 29, 29, 29, 29
      | 31, 31, 31, 31, 31, 31, 31, 31, 31, 31, 31, 31, 31, 31, 31, 31, 31, 31, 31, 31, 31, 31, 31, 31, 31, 31, 31, 31, 31, 31
      | 37, 37, 37, 37, 37, 37, 37, 37, 37, 37, 37, 37, 37, 37, 37, 37, 37, 37, 37, 37, 37, 37, 37, 37, 37, 37, 37, 37, 37, 37
      | 21, 21, 21, 21, 21, 21, 21, 21, 21, 21, 21, 21, 21, 21, 21, 21, 21, 21, 21, 21, 21, 21, 21, 21, 21, 21, 21, 21, 21, 21|];
suc = [ { 7, 9, 10 },
       { 4, 6, 20 },
       { 5, 16, 21 },
       { 10, 28 },
       { 8 },
       { 13 },
       { 12, 26 },
       { 24 },
       { 11, 23, 26 },
       { 29 },
       { 17 },
       { 14, 22 },
       { 19, 25, 28 },
       { 15, 29 },
       { 16 },
       { 30 },
       { 18 },
       { 20 },
       { 22 },
       { 21 },
       { 28 },
       { 27 },
       { 24 },
       { 25, 30 },
       { 29 },
       { 27 },
       { 30 },
       {  },
       {  },
       {  } ];
